
  17    4
  10   10   10   10

   0   0   0   0   0   4 2 3 4 6 
   1  10  10  10  10   4 16 12 11 7 
   6  10  10  10  10   3 12 8 7 
   5  10  10  10  10   2 9 5 
   9  10  10  10  10   4 16 15 12 10 
   7  10  10  10  10   4 16 15 12 10 
   1  10  10  10  10   2 15 10 
   6  10  10  10  10   2 16 10 
   7  10  10  10  10   3 15 14 13 
   1  10  10  10  10   2 14 13 
   8  10  10  10  10   2 15 14 
   4  10  10  10  10   1 13 
   7  10  10  10  10   1 17
   4  10  10  10  10   1 17
   7  10  10  10  10   1 17
   1  10  10  10  10   1 17
   0   0   0   0   0   0 
